NAME : LPS-n14-m248
COMMENT : (Lartu-Peter-Santi Plot, instance 4648 out of 39200. 14 customers.)
TYPE : CVRP
DIMENSION : 14
EDGE_WEIGHT_TYPE : EUC_2D
CAPACITY : 140
NODE_COORD_SECTION
 1 54 100
 2 20 23
 3 79 21
 4 99 98
 5 25 15
 6 87 58
 7 65 78
 8 82 98
 9 38 35
 10 22 82
 11 58 72
 12 46 71
 13 48 47
 14 87 14
DEMAND_SECTION
1 0
2 77
3 78
4 24
5 30
6 137
7 16
8 107
9 101
10 63
11 91
12 8
13 132
14 2
DEPOT_SECTION
 1
 -1
EOF
